p cnf 234 1476
1 -145 -109 0
-1 145 -109 0
1 145 -110 0
-1 -145 -110 0
19 -145 -115 0
-19 145 -115 0
19 145 -116 0
-19 -145 -116 0
37 -145 -121 0
-37 145 -121 0
37 145 -122 0
-37 -145 -122 0
55 -145 -127 0
-55 145 -127 0
55 145 -128 0
-55 -145 -128 0
73 -145 -133 0
-73 145 -133 0
73 145 -134 0
-73 -145 -134 0
91 -145 -139 0
-91 145 -139 0
91 145 -140 0
-91 -145 -140 0
2 -109 0
2 -110 0
109 -109 0
110 -110 0
20 -115 0
20 -116 0
115 -115 0
116 -116 0
38 -121 0
38 -122 0
121 -121 0
122 -122 0
56 -127 0
56 -128 0
127 -127 0
128 -128 0
74 -133 0
74 -134 0
133 -133 0
134 -134 0
92 -139 0
92 -140 0
139 -139 0
140 -140 0
3 -109 0
3 -110 0
109 -109 0
110 -110 0
21 -115 0
21 -116 0
115 -115 0
116 -116 0
39 -121 0
39 -122 0
121 -121 0
122 -122 0
57 -127 0
57 -128 0
127 -127 0
128 -128 0
75 -133 0
75 -134 0
133 -133 0
134 -134 0
93 -139 0
93 -140 0
139 -139 0
140 -140 0
4 -146 -109 0
-4 146 -109 0
4 146 -110 0
-4 -146 -110 0
22 -146 -115 0
-22 146 -115 0
22 146 -116 0
-22 -146 -116 0
40 -146 -121 0
-40 146 -121 0
40 146 -122 0
-40 -146 -122 0
58 -146 -127 0
-58 146 -127 0
58 146 -128 0
-58 -146 -128 0
76 -146 -133 0
-76 146 -133 0
76 146 -134 0
-76 -146 -134 0
94 -146 -139 0
-94 146 -139 0
94 146 -140 0
-94 -146 -140 0
5 -109 0
5 -110 0
109 -109 0
110 -110 0
23 -115 0
23 -116 0
115 -115 0
116 -116 0
41 -121 0
41 -122 0
121 -121 0
122 -122 0
59 -127 0
59 -128 0
127 -127 0
128 -128 0
77 -133 0
77 -134 0
133 -133 0
134 -134 0
95 -139 0
95 -140 0
139 -139 0
140 -140 0
6 -109 0
6 -110 0
109 -109 0
110 -110 0
24 -115 0
24 -116 0
115 -115 0
116 -116 0
42 -121 0
42 -122 0
121 -121 0
122 -122 0
60 -127 0
60 -128 0
127 -127 0
128 -128 0
78 -133 0
78 -134 0
133 -133 0
134 -134 0
96 -139 0
96 -140 0
139 -139 0
140 -140 0
-7 -109 0
-7 -110 0
109 -109 0
110 -110 0
-25 -115 0
-25 -116 0
115 -115 0
116 -116 0
-43 -121 0
-43 -122 0
121 -121 0
122 -122 0
-61 -127 0
-61 -128 0
127 -127 0
128 -128 0
-79 -133 0
-79 -134 0
133 -133 0
134 -134 0
-97 -139 0
-97 -140 0
139 -139 0
140 -140 0
-8 -109 0
-8 -110 0
109 -109 0
110 -110 0
-26 -115 0
-26 -116 0
115 -115 0
116 -116 0
-44 -121 0
-44 -122 0
121 -121 0
122 -122 0
-62 -127 0
-62 -128 0
127 -127 0
128 -128 0
-80 -133 0
-80 -134 0
133 -133 0
134 -134 0
-98 -139 0
-98 -140 0
139 -139 0
140 -140 0
9 -109 0
9 -110 0
109 -109 0
110 -110 0
27 -115 0
27 -116 0
115 -115 0
116 -116 0
45 -121 0
45 -122 0
121 -121 0
122 -122 0
63 -127 0
63 -128 0
127 -127 0
128 -128 0
81 -133 0
81 -134 0
133 -133 0
134 -134 0
99 -139 0
99 -140 0
139 -139 0
140 -140 0
10 -109 0
10 -110 0
109 -109 0
110 -110 0
28 -115 0
28 -116 0
115 -115 0
116 -116 0
46 -121 0
46 -122 0
121 -121 0
122 -122 0
64 -127 0
64 -128 0
127 -127 0
128 -128 0
82 -133 0
82 -134 0
133 -133 0
134 -134 0
100 -139 0
100 -140 0
139 -139 0
140 -140 0
11 -109 0
11 -110 0
109 -109 0
110 -110 0
29 -115 0
29 -116 0
115 -115 0
116 -116 0
47 -121 0
47 -122 0
121 -121 0
122 -122 0
65 -127 0
65 -128 0
127 -127 0
128 -128 0
83 -133 0
83 -134 0
133 -133 0
134 -134 0
101 -139 0
101 -140 0
139 -139 0
140 -140 0
-12 -109 0
-12 -110 0
109 -109 0
110 -110 0
-30 -115 0
-30 -116 0
115 -115 0
116 -116 0
-48 -121 0
-48 -122 0
121 -121 0
122 -122 0
-66 -127 0
-66 -128 0
127 -127 0
128 -128 0
-84 -133 0
-84 -134 0
133 -133 0
134 -134 0
-102 -139 0
-102 -140 0
139 -139 0
140 -140 0
13 -109 0
13 -110 0
109 -109 0
110 -110 0
31 -115 0
31 -116 0
115 -115 0
116 -116 0
49 -121 0
49 -122 0
121 -121 0
122 -122 0
67 -127 0
67 -128 0
127 -127 0
128 -128 0
85 -133 0
85 -134 0
133 -133 0
134 -134 0
103 -139 0
103 -140 0
139 -139 0
140 -140 0
14 -109 0
14 -110 0
109 -109 0
110 -110 0
32 -115 0
32 -116 0
115 -115 0
116 -116 0
50 -121 0
50 -122 0
121 -121 0
122 -122 0
68 -127 0
68 -128 0
127 -127 0
128 -128 0
86 -133 0
86 -134 0
133 -133 0
134 -134 0
104 -139 0
104 -140 0
139 -139 0
140 -140 0
15 -109 0
15 -110 0
109 -109 0
110 -110 0
33 -115 0
33 -116 0
115 -115 0
116 -116 0
51 -121 0
51 -122 0
121 -121 0
122 -122 0
69 -127 0
69 -128 0
127 -127 0
128 -128 0
87 -133 0
87 -134 0
133 -133 0
134 -134 0
105 -139 0
105 -140 0
139 -139 0
140 -140 0
16 -147 -109 0
-16 147 -109 0
16 147 -110 0
-16 -147 -110 0
34 -147 -115 0
-34 147 -115 0
34 147 -116 0
-34 -147 -116 0
52 -147 -121 0
-52 147 -121 0
52 147 -122 0
-52 -147 -122 0
70 -147 -127 0
-70 147 -127 0
70 147 -128 0
-70 -147 -128 0
88 -147 -133 0
-88 147 -133 0
88 147 -134 0
-88 -147 -134 0
106 -147 -139 0
-106 147 -139 0
106 147 -140 0
-106 -147 -140 0
17 -109 0
17 -110 0
109 -109 0
110 -110 0
35 -115 0
35 -116 0
115 -115 0
116 -116 0
53 -121 0
53 -122 0
121 -121 0
122 -122 0
71 -127 0
71 -128 0
127 -127 0
128 -128 0
89 -133 0
89 -134 0
133 -133 0
134 -134 0
107 -139 0
107 -140 0
139 -139 0
140 -140 0
18 -148 -109 0
-18 148 -109 0
18 148 -110 0
-18 -148 -110 0
36 -148 -115 0
-36 148 -115 0
36 148 -116 0
-36 -148 -116 0
54 -148 -121 0
-54 148 -121 0
54 148 -122 0
-54 -148 -122 0
72 -148 -127 0
-72 148 -127 0
72 148 -128 0
-72 -148 -128 0
90 -148 -133 0
-90 148 -133 0
90 148 -134 0
-90 -148 -134 0
108 -148 -139 0
-108 148 -139 0
108 148 -140 0
-108 -148 -140 0
-199 109 0
199 -109 0
-200 110 0
199 -110 0
-199 -109 0
-200 -110 0
-205 109 199 0
205 -109 0
205 -199 0
-206 110 200 0
206 -110 0
206 -200 0
-205 -115 0
-206 -116 0
-211 115 205 0
211 -115 0
211 -205 0
-212 116 206 0
212 -116 0
212 -206 0
-211 -121 0
-212 -122 0
-217 121 211 0
217 -121 0
217 -211 0
-218 122 212 0
218 -122 0
218 -212 0
-217 -127 0
-218 -128 0
-223 127 217 0
223 -127 0
223 -217 0
-224 128 218 0
224 -128 0
224 -218 0
-223 -133 0
-224 -134 0
-229 133 223 0
229 -133 0
229 -223 0
-230 134 224 0
230 -134 0
230 -224 0
-229 -139 0
-230 -140 0
229 0
230 0
1 -111 0
1 -112 0
111 -111 0
112 -112 0
19 -117 0
19 -118 0
117 -117 0
118 -118 0
37 -123 0
37 -124 0
123 -123 0
124 -124 0
55 -129 0
55 -130 0
129 -129 0
130 -130 0
73 -135 0
73 -136 0
135 -135 0
136 -136 0
91 -141 0
91 -142 0
141 -141 0
142 -142 0
2 -111 0
2 -112 0
111 -111 0
112 -112 0
20 -117 0
20 -118 0
117 -117 0
118 -118 0
38 -123 0
38 -124 0
123 -123 0
124 -124 0
56 -129 0
56 -130 0
129 -129 0
130 -130 0
74 -135 0
74 -136 0
135 -135 0
136 -136 0
92 -141 0
92 -142 0
141 -141 0
142 -142 0
3 -111 0
3 -112 0
111 -111 0
112 -112 0
21 -117 0
21 -118 0
117 -117 0
118 -118 0
39 -123 0
39 -124 0
123 -123 0
124 -124 0
57 -129 0
57 -130 0
129 -129 0
130 -130 0
75 -135 0
75 -136 0
135 -135 0
136 -136 0
93 -141 0
93 -142 0
141 -141 0
142 -142 0
-4 -111 0
-4 -112 0
111 -111 0
112 -112 0
-22 -117 0
-22 -118 0
117 -117 0
118 -118 0
-40 -123 0
-40 -124 0
123 -123 0
124 -124 0
-58 -129 0
-58 -130 0
129 -129 0
130 -130 0
-76 -135 0
-76 -136 0
135 -135 0
136 -136 0
-94 -141 0
-94 -142 0
141 -141 0
142 -142 0
5 -111 0
5 -112 0
111 -111 0
112 -112 0
23 -117 0
23 -118 0
117 -117 0
118 -118 0
41 -123 0
41 -124 0
123 -123 0
124 -124 0
59 -129 0
59 -130 0
129 -129 0
130 -130 0
77 -135 0
77 -136 0
135 -135 0
136 -136 0
95 -141 0
95 -142 0
141 -141 0
142 -142 0
6 -111 0
6 -112 0
111 -111 0
112 -112 0
24 -117 0
24 -118 0
117 -117 0
118 -118 0
42 -123 0
42 -124 0
123 -123 0
124 -124 0
60 -129 0
60 -130 0
129 -129 0
130 -130 0
78 -135 0
78 -136 0
135 -135 0
136 -136 0
96 -141 0
96 -142 0
141 -141 0
142 -142 0
-7 -111 0
-7 -112 0
111 -111 0
112 -112 0
-25 -117 0
-25 -118 0
117 -117 0
118 -118 0
-43 -123 0
-43 -124 0
123 -123 0
124 -124 0
-61 -129 0
-61 -130 0
129 -129 0
130 -130 0
-79 -135 0
-79 -136 0
135 -135 0
136 -136 0
-97 -141 0
-97 -142 0
141 -141 0
142 -142 0
-8 -111 0
-8 -112 0
111 -111 0
112 -112 0
-26 -117 0
-26 -118 0
117 -117 0
118 -118 0
-44 -123 0
-44 -124 0
123 -123 0
124 -124 0
-62 -129 0
-62 -130 0
129 -129 0
130 -130 0
-80 -135 0
-80 -136 0
135 -135 0
136 -136 0
-98 -141 0
-98 -142 0
141 -141 0
142 -142 0
9 -111 0
9 -112 0
111 -111 0
112 -112 0
27 -117 0
27 -118 0
117 -117 0
118 -118 0
45 -123 0
45 -124 0
123 -123 0
124 -124 0
63 -129 0
63 -130 0
129 -129 0
130 -130 0
81 -135 0
81 -136 0
135 -135 0
136 -136 0
99 -141 0
99 -142 0
141 -141 0
142 -142 0
10 -111 0
10 -112 0
111 -111 0
112 -112 0
28 -117 0
28 -118 0
117 -117 0
118 -118 0
46 -123 0
46 -124 0
123 -123 0
124 -124 0
64 -129 0
64 -130 0
129 -129 0
130 -130 0
82 -135 0
82 -136 0
135 -135 0
136 -136 0
100 -141 0
100 -142 0
141 -141 0
142 -142 0
11 -111 0
11 -112 0
111 -111 0
112 -112 0
29 -117 0
29 -118 0
117 -117 0
118 -118 0
47 -123 0
47 -124 0
123 -123 0
124 -124 0
65 -129 0
65 -130 0
129 -129 0
130 -130 0
83 -135 0
83 -136 0
135 -135 0
136 -136 0
101 -141 0
101 -142 0
141 -141 0
142 -142 0
-12 -111 0
-12 -112 0
111 -111 0
112 -112 0
-30 -117 0
-30 -118 0
117 -117 0
118 -118 0
-48 -123 0
-48 -124 0
123 -123 0
124 -124 0
-66 -129 0
-66 -130 0
129 -129 0
130 -130 0
-84 -135 0
-84 -136 0
135 -135 0
136 -136 0
-102 -141 0
-102 -142 0
141 -141 0
142 -142 0
13 -111 0
13 -112 0
111 -111 0
112 -112 0
31 -117 0
31 -118 0
117 -117 0
118 -118 0
49 -123 0
49 -124 0
123 -123 0
124 -124 0
67 -129 0
67 -130 0
129 -129 0
130 -130 0
85 -135 0
85 -136 0
135 -135 0
136 -136 0
103 -141 0
103 -142 0
141 -141 0
142 -142 0
14 -111 0
14 -112 0
111 -111 0
112 -112 0
32 -117 0
32 -118 0
117 -117 0
118 -118 0
50 -123 0
50 -124 0
123 -123 0
124 -124 0
68 -129 0
68 -130 0
129 -129 0
130 -130 0
86 -135 0
86 -136 0
135 -135 0
136 -136 0
104 -141 0
104 -142 0
141 -141 0
142 -142 0
15 -111 0
15 -112 0
111 -111 0
112 -112 0
33 -117 0
33 -118 0
117 -117 0
118 -118 0
51 -123 0
51 -124 0
123 -123 0
124 -124 0
69 -129 0
69 -130 0
129 -129 0
130 -130 0
87 -135 0
87 -136 0
135 -135 0
136 -136 0
105 -141 0
105 -142 0
141 -141 0
142 -142 0
16 -111 0
16 -112 0
111 -111 0
112 -112 0
34 -117 0
34 -118 0
117 -117 0
118 -118 0
52 -123 0
52 -124 0
123 -123 0
124 -124 0
70 -129 0
70 -130 0
129 -129 0
130 -130 0
88 -135 0
88 -136 0
135 -135 0
136 -136 0
106 -141 0
106 -142 0
141 -141 0
142 -142 0
17 -111 0
17 -112 0
111 -111 0
112 -112 0
35 -117 0
35 -118 0
117 -117 0
118 -118 0
53 -123 0
53 -124 0
123 -123 0
124 -124 0
71 -129 0
71 -130 0
129 -129 0
130 -130 0
89 -135 0
89 -136 0
135 -135 0
136 -136 0
107 -141 0
107 -142 0
141 -141 0
142 -142 0
18 -111 0
18 -112 0
111 -111 0
112 -112 0
36 -117 0
36 -118 0
117 -117 0
118 -118 0
54 -123 0
54 -124 0
123 -123 0
124 -124 0
72 -129 0
72 -130 0
129 -129 0
130 -130 0
90 -135 0
90 -136 0
135 -135 0
136 -136 0
108 -141 0
108 -142 0
141 -141 0
142 -142 0
-201 111 0
201 -111 0
-202 112 0
201 -112 0
-201 -111 0
-202 -112 0
-207 111 201 0
207 -111 0
207 -201 0
-208 112 202 0
208 -112 0
208 -202 0
-207 -117 0
-208 -118 0
-213 117 207 0
213 -117 0
213 -207 0
-214 118 208 0
214 -118 0
214 -208 0
-213 -123 0
-214 -124 0
-219 123 213 0
219 -123 0
219 -213 0
-220 124 214 0
220 -124 0
220 -214 0
-219 -129 0
-220 -130 0
-225 129 219 0
225 -129 0
225 -219 0
-226 130 220 0
226 -130 0
226 -220 0
-225 -135 0
-226 -136 0
-231 135 225 0
231 -135 0
231 -225 0
-232 136 226 0
232 -136 0
232 -226 0
-231 -141 0
-232 -142 0
231 0
232 0
1 -149 -113 0
-1 149 -113 0
1 149 -114 0
-1 -149 -114 0
19 -149 -119 0
-19 149 -119 0
19 149 -120 0
-19 -149 -120 0
37 -149 -125 0
-37 149 -125 0
37 149 -126 0
-37 -149 -126 0
55 -149 -131 0
-55 149 -131 0
55 149 -132 0
-55 -149 -132 0
73 -149 -137 0
-73 149 -137 0
73 149 -138 0
-73 -149 -138 0
91 -149 -143 0
-91 149 -143 0
91 149 -144 0
-91 -149 -144 0
2 -113 0
2 -114 0
113 -113 0
114 -114 0
20 -119 0
20 -120 0
119 -119 0
120 -120 0
38 -125 0
38 -126 0
125 -125 0
126 -126 0
56 -131 0
56 -132 0
131 -131 0
132 -132 0
74 -137 0
74 -138 0
137 -137 0
138 -138 0
92 -143 0
92 -144 0
143 -143 0
144 -144 0
3 -113 0
3 -114 0
113 -113 0
114 -114 0
21 -119 0
21 -120 0
119 -119 0
120 -120 0
39 -125 0
39 -126 0
125 -125 0
126 -126 0
57 -131 0
57 -132 0
131 -131 0
132 -132 0
75 -137 0
75 -138 0
137 -137 0
138 -138 0
93 -143 0
93 -144 0
143 -143 0
144 -144 0
-4 -113 0
-4 -114 0
113 -113 0
114 -114 0
-22 -119 0
-22 -120 0
119 -119 0
120 -120 0
-40 -125 0
-40 -126 0
125 -125 0
126 -126 0
-58 -131 0
-58 -132 0
131 -131 0
132 -132 0
-76 -137 0
-76 -138 0
137 -137 0
138 -138 0
-94 -143 0
-94 -144 0
143 -143 0
144 -144 0
5 -113 0
5 -114 0
113 -113 0
114 -114 0
23 -119 0
23 -120 0
119 -119 0
120 -120 0
41 -125 0
41 -126 0
125 -125 0
126 -126 0
59 -131 0
59 -132 0
131 -131 0
132 -132 0
77 -137 0
77 -138 0
137 -137 0
138 -138 0
95 -143 0
95 -144 0
143 -143 0
144 -144 0
6 -113 0
6 -114 0
113 -113 0
114 -114 0
24 -119 0
24 -120 0
119 -119 0
120 -120 0
42 -125 0
42 -126 0
125 -125 0
126 -126 0
60 -131 0
60 -132 0
131 -131 0
132 -132 0
78 -137 0
78 -138 0
137 -137 0
138 -138 0
96 -143 0
96 -144 0
143 -143 0
144 -144 0
-7 -113 0
-7 -114 0
113 -113 0
114 -114 0
-25 -119 0
-25 -120 0
119 -119 0
120 -120 0
-43 -125 0
-43 -126 0
125 -125 0
126 -126 0
-61 -131 0
-61 -132 0
131 -131 0
132 -132 0
-79 -137 0
-79 -138 0
137 -137 0
138 -138 0
-97 -143 0
-97 -144 0
143 -143 0
144 -144 0
8 -150 -113 0
-8 150 -113 0
8 150 -114 0
-8 -150 -114 0
26 -150 -119 0
-26 150 -119 0
26 150 -120 0
-26 -150 -120 0
44 -150 -125 0
-44 150 -125 0
44 150 -126 0
-44 -150 -126 0
62 -150 -131 0
-62 150 -131 0
62 150 -132 0
-62 -150 -132 0
80 -150 -137 0
-80 150 -137 0
80 150 -138 0
-80 -150 -138 0
98 -150 -143 0
-98 150 -143 0
98 150 -144 0
-98 -150 -144 0
9 -151 -113 0
-9 151 -113 0
9 151 -114 0
-9 -151 -114 0
27 -151 -119 0
-27 151 -119 0
27 151 -120 0
-27 -151 -120 0
45 -151 -125 0
-45 151 -125 0
45 151 -126 0
-45 -151 -126 0
63 -151 -131 0
-63 151 -131 0
63 151 -132 0
-63 -151 -132 0
81 -151 -137 0
-81 151 -137 0
81 151 -138 0
-81 -151 -138 0
99 -151 -143 0
-99 151 -143 0
99 151 -144 0
-99 -151 -144 0
10 -152 -113 0
-10 152 -113 0
10 152 -114 0
-10 -152 -114 0
28 -152 -119 0
-28 152 -119 0
28 152 -120 0
-28 -152 -120 0
46 -152 -125 0
-46 152 -125 0
46 152 -126 0
-46 -152 -126 0
64 -152 -131 0
-64 152 -131 0
64 152 -132 0
-64 -152 -132 0
82 -152 -137 0
-82 152 -137 0
82 152 -138 0
-82 -152 -138 0
100 -152 -143 0
-100 152 -143 0
100 152 -144 0
-100 -152 -144 0
11 -153 -113 0
-11 153 -113 0
11 153 -114 0
-11 -153 -114 0
29 -153 -119 0
-29 153 -119 0
29 153 -120 0
-29 -153 -120 0
47 -153 -125 0
-47 153 -125 0
47 153 -126 0
-47 -153 -126 0
65 -153 -131 0
-65 153 -131 0
65 153 -132 0
-65 -153 -132 0
83 -153 -137 0
-83 153 -137 0
83 153 -138 0
-83 -153 -138 0
101 -153 -143 0
-101 153 -143 0
101 153 -144 0
-101 -153 -144 0
12 -154 -113 0
-12 154 -113 0
12 154 -114 0
-12 -154 -114 0
30 -154 -119 0
-30 154 -119 0
30 154 -120 0
-30 -154 -120 0
48 -154 -125 0
-48 154 -125 0
48 154 -126 0
-48 -154 -126 0
66 -154 -131 0
-66 154 -131 0
66 154 -132 0
-66 -154 -132 0
84 -154 -137 0
-84 154 -137 0
84 154 -138 0
-84 -154 -138 0
102 -154 -143 0
-102 154 -143 0
102 154 -144 0
-102 -154 -144 0
13 -113 0
13 -114 0
113 -113 0
114 -114 0
31 -119 0
31 -120 0
119 -119 0
120 -120 0
49 -125 0
49 -126 0
125 -125 0
126 -126 0
67 -131 0
67 -132 0
131 -131 0
132 -132 0
85 -137 0
85 -138 0
137 -137 0
138 -138 0
103 -143 0
103 -144 0
143 -143 0
144 -144 0
14 -113 0
14 -114 0
113 -113 0
114 -114 0
32 -119 0
32 -120 0
119 -119 0
120 -120 0
50 -125 0
50 -126 0
125 -125 0
126 -126 0
68 -131 0
68 -132 0
131 -131 0
132 -132 0
86 -137 0
86 -138 0
137 -137 0
138 -138 0
104 -143 0
104 -144 0
143 -143 0
144 -144 0
15 -155 -113 0
-15 155 -113 0
15 155 -114 0
-15 -155 -114 0
33 -155 -119 0
-33 155 -119 0
33 155 -120 0
-33 -155 -120 0
51 -155 -125 0
-51 155 -125 0
51 155 -126 0
-51 -155 -126 0
69 -155 -131 0
-69 155 -131 0
69 155 -132 0
-69 -155 -132 0
87 -155 -137 0
-87 155 -137 0
87 155 -138 0
-87 -155 -138 0
105 -155 -143 0
-105 155 -143 0
105 155 -144 0
-105 -155 -144 0
16 -113 0
16 -114 0
113 -113 0
114 -114 0
34 -119 0
34 -120 0
119 -119 0
120 -120 0
52 -125 0
52 -126 0
125 -125 0
126 -126 0
70 -131 0
70 -132 0
131 -131 0
132 -132 0
88 -137 0
88 -138 0
137 -137 0
138 -138 0
106 -143 0
106 -144 0
143 -143 0
144 -144 0
17 -113 0
17 -114 0
113 -113 0
114 -114 0
35 -119 0
35 -120 0
119 -119 0
120 -120 0
53 -125 0
53 -126 0
125 -125 0
126 -126 0
71 -131 0
71 -132 0
131 -131 0
132 -132 0
89 -137 0
89 -138 0
137 -137 0
138 -138 0
107 -143 0
107 -144 0
143 -143 0
144 -144 0
18 -113 0
18 -114 0
113 -113 0
114 -114 0
36 -119 0
36 -120 0
119 -119 0
120 -120 0
54 -125 0
54 -126 0
125 -125 0
126 -126 0
72 -131 0
72 -132 0
131 -131 0
132 -132 0
90 -137 0
90 -138 0
137 -137 0
138 -138 0
108 -143 0
108 -144 0
143 -143 0
144 -144 0
-203 113 0
203 -113 0
-204 114 0
203 -114 0
-203 -113 0
-204 -114 0
-209 113 203 0
209 -113 0
209 -203 0
-210 114 204 0
210 -114 0
210 -204 0
-209 -119 0
-210 -120 0
-215 119 209 0
215 -119 0
215 -209 0
-216 120 210 0
216 -120 0
216 -210 0
-215 -125 0
-216 -126 0
-221 125 215 0
221 -125 0
221 -215 0
-222 126 216 0
222 -126 0
222 -216 0
-221 -131 0
-222 -132 0
-227 131 221 0
227 -131 0
227 -221 0
-228 132 222 0
228 -132 0
228 -222 0
-227 -137 0
-228 -138 0
-233 137 227 0
233 -137 0
233 -227 0
-234 138 228 0
234 -138 0
234 -228 0
-233 -143 0
-234 -144 0
233 0
234 0
-109 116 122 128 134 140 0
-110 0
-115 122 128 134 140 0
-116 109 0
-121 128 134 140 0
-122 109 115 0
-127 134 140 0
-128 109 115 121 0
-133 140 0
-134 109 115 121 127 0
-139 0
-140 109 115 121 127 133 0
-111 118 124 130 136 142 0
-112 0
-117 124 130 136 142 0
-118 111 0
-123 130 136 142 0
-124 111 117 0
-129 136 142 0
-130 111 117 123 0
-135 142 0
-136 111 117 123 129 0
-141 0
-142 111 117 123 129 135 0
-113 120 126 132 138 144 0
-114 0
-119 126 132 138 144 0
-120 113 0
-125 132 138 144 0
-126 113 119 0
-131 138 144 0
-132 113 119 125 0
-137 144 0
-138 113 119 125 131 0
-143 0
-144 113 119 125 131 137 0
